
<<< setup


<<< generate

CPXPARAM_TimeLimit                               9999
Tried aggregator 2 times.
MIP Presolve eliminated 9 rows and 9 columns.
Aggregator did 10 substitutions.
Reduced MIP has 111 rows, 181 columns, and 614 nonzeros.
Reduced MIP has 90 binaries, 91 generals, 0 SOSs, and 0 indicators.
Presolve time = 0,00 sec. (0,61 ticks)
Found incumbent of value 89,768622 after 0,00 sec. (1,23 ticks)
Probing fixed 7 vars, tightened 0 bounds.
Probing time = 0,00 sec. (0,36 ticks)
Cover probing fixed 0 vars, tightened 63 bounds.
Tried aggregator 1 time.
MIP Presolve eliminated 10 rows and 16 columns.
MIP Presolve modified 112 coefficients.
Reduced MIP has 101 rows, 165 columns, and 565 nonzeros.
Reduced MIP has 83 binaries, 82 generals, 0 SOSs, and 0 indicators.
Presolve time = 0,00 sec. (0,67 ticks)
Probing time = 0,00 sec. (0,30 ticks)
Clique table members: 19.
MIP emphasis: balance optimality and feasibility.
MIP search method: dynamic search.
Parallel mode: deterministic, using up to 4 threads.
Root relaxation solution time = 0,00 sec. (0,55 ticks)

        Nodes                                         Cuts/
   Node  Left     Objective  IInf  Best Integer    Best Bound    ItCnt     Gap

*     0+    0                           89,7686        0,0000           100,00%
      0     0       28,6778    28       89,7686       28,6778       84   68,05%
      0     0       31,6590    29       89,7686      Cuts: 45      112   64,73%
      0     0       34,5909    40       89,7686      Cuts: 38      169   61,47%
      0     0       35,1124    44       89,7686      Cuts: 19      191   60,89%
      0     0       35,3219    42       89,7686       Cuts: 8      205   60,65%
      0     0       35,3349    44       89,7686       Cuts: 9      212   60,64%
      0     0       35,3454    46       89,7686       Cuts: 6      218   60,63%
*     0+    0                           56,8569       35,3454            37,83%
*     0+    0                           37,6759       35,3454             6,19%
      0     0        cutoff             37,6759       37,6759      218    0,00%
Elapsed time = 0,09 sec. (54,27 ticks, tree = 0,01 MB, solutions = 3)

Cover cuts applied:  5
Implied bound cuts applied:  7
Flow cuts applied:  13
Zero-half cuts applied:  5
Lift and project cuts applied:  3
Gomory fractional cuts applied:  4

Root node processing (before b&c):
  Real time             =    0,09 sec. (54,28 ticks)
Parallel b&c, 4 threads:
  Real time             =    0,00 sec. (0,00 ticks)
  Sync time (average)   =    0,00 sec.
  Wait time (average)   =    0,00 sec.
                          ------------
Total (root+branch&cut) =    0,09 sec. (54,28 ticks)

<<< solve


OBJECTIVE: 37.67586
12/18/2018 23:39:05 777
solving time ~= 93.679931641
Done
 [[0 0 1 0 0 0 0 0 0 0]
         [0 0 0 0 0 9 0 0 0 0]
         [0 10 0 0 0 0 0 0 0 0]
         [2 0 0 0 0 0 0 0 0 0]
         [0 0 0 3 0 0 0 0 0 0]
         [0 0 0 0 0 0 0 8 0 0]
         [0 0 0 0 4 0 0 0 0 0]
         [0 0 0 0 0 0 0 0 0 7]
         [0 0 0 0 0 0 5 0 0 0]
         [0 0 0 0 0 0 0 0 6 0]]

<<< post process


<<< done

